\ Model minCost
\ LP format - for model browsing. Use MPS format to capture full model detail.
Minimize
  7 y0_1_0 + 7 y0_1_1 + 7 y0_1_2 + 7 y0_1_3 + 7 y0_1_4 + 3 y0_2_0 + 3 y0_2_1
   + 3 y0_2_2 + 3 y0_2_3 + 3 y0_2_4 + 7 y1_0_0 + 7 y1_0_1 + 7 y1_0_2
   + 7 y1_0_3 + 7 y1_0_4 + 6 y1_2_0 + 6 y1_2_1 + 6 y1_2_2 + 6 y1_2_3
   + 6 y1_2_4 + 3 y2_0_0 + 3 y2_0_1 + 3 y2_0_2 + 3 y2_0_3 + 3 y2_0_4
   + 6 y2_1_0 + 6 y2_1_1 + 6 y2_1_2 + 6 y2_1_3 + 6 y2_1_4 + 10 u0_1_0
   + 10 u0_1_1 + 10 u0_1_2 + 10 u0_1_3 + 10 u0_1_4 + 10 u0_2_0 + 10 u0_2_1
   + 10 u0_2_2 + 10 u0_2_3 + 10 u0_2_4 + 10 u1_0_0 + 10 u1_0_1 + 10 u1_0_2
   + 10 u1_0_3 + 10 u1_0_4 + 10 u1_2_0 + 10 u1_2_1 + 10 u1_2_2 + 10 u1_2_3
   + 10 u1_2_4 + 10 u2_0_0 + 10 u2_0_1 + 10 u2_0_2 + 10 u2_0_3 + 10 u2_0_4
   + 10 u2_1_0 + 10 u2_1_1 + 10 u2_1_2 + 10 u2_1_3 + 10 u2_1_4
Subject To
 000ship: <= 0
 001ship: <= 0
 002ship: <= 0
 003ship: <= 0
 004ship: <= 0
 010ship: x0_1_0 - u0_1_4 <= 10000
 011ship: x0_1_1 - u0_1_0 <= 20000
 012ship: x0_1_2 - u0_1_1 <= 10000
 013ship: x0_1_3 - u0_1_2 <= 40000
 014ship: x0_1_4 - u0_1_3 <= 30000
 020ship: x0_2_0 - u0_2_4 <= 5000
 021ship: x0_2_1 - u0_2_0 <= 5000
 022ship: x0_2_2 - u0_2_1 <= 5000
 023ship: x0_2_3 - u0_2_2 <= 5000
 024ship: x0_2_4 - u0_2_3 <= 5000
 100ship: x1_0_0 - u1_0_4 <= 2500
 101ship: x1_0_1 - u1_0_0 <= 2500
 102ship: x1_0_2 - u1_0_1 <= 2500
 103ship: x1_0_3 - u1_0_2 <= 2500
 104ship: x1_0_4 - u1_0_3 <= 2500
 110ship: <= 0
 111ship: <= 0
 112ship: <= 0
 113ship: <= 0
 114ship: <= 0
 120ship: x1_2_0 - u1_2_4 <= 2500
 121ship: x1_2_1 - u1_2_0 <= 2500
 122ship: x1_2_2 - u1_2_1 <= 2500
 123ship: x1_2_3 - u1_2_2 <= 2500
 124ship: x1_2_4 - u1_2_3 <= 2500
 200ship: x2_0_0 - u2_0_4 <= 4000
 201ship: x2_0_1 - u2_0_0 <= 4000
 202ship: x2_0_2 - u2_0_1 <= 4000
 203ship: x2_0_3 - u2_0_2 <= 4000
 204ship: x2_0_4 - u2_0_3 <= 4000
 210ship: x2_1_0 - u2_1_4 <= 40000
 211ship: x2_1_1 - u2_1_0 <= 20000
 212ship: x2_1_2 - u2_1_1 <= 30000
 213ship: x2_1_3 - u2_1_2 <= 20000
 214ship: x2_1_4 - u2_1_3 <= 40000
 220ship: <= 0
 221ship: <= 0
 222ship: <= 0
 223ship: <= 0
 224ship: <= 0
 000accumulation: = 0
 001accumulation: = 0
 002accumulation: = 0
 003accumulation: = 0
 004accumulation: = 0
 010accumulation: - x0_1_0 - u0_1_0 + u0_1_4 = -10000
 011accumulation: - x0_1_1 + u0_1_0 - u0_1_1 = -20000
 012accumulation: - x0_1_2 + u0_1_1 - u0_1_2 = -10000
 013accumulation: - x0_1_3 + u0_1_2 - u0_1_3 = -40000
 014accumulation: - x0_1_4 + u0_1_3 - u0_1_4 = -30000
 020accumulation: - x0_2_0 - u0_2_0 + u0_2_4 = -5000
 021accumulation: - x0_2_1 + u0_2_0 - u0_2_1 = -5000
 022accumulation: - x0_2_2 + u0_2_1 - u0_2_2 = -5000
 023accumulation: - x0_2_3 + u0_2_2 - u0_2_3 = -5000
 024accumulation: - x0_2_4 + u0_2_3 - u0_2_4 = -5000
 100accumulation: - x1_0_0 - u1_0_0 + u1_0_4 = -2500
 101accumulation: - x1_0_1 + u1_0_0 - u1_0_1 = -2500
 102accumulation: - x1_0_2 + u1_0_1 - u1_0_2 = -2500
 103accumulation: - x1_0_3 + u1_0_2 - u1_0_3 = -2500
 104accumulation: - x1_0_4 + u1_0_3 - u1_0_4 = -2500
 110accumulation: = 0
 111accumulation: = 0
 112accumulation: = 0
 113accumulation: = 0
 114accumulation: = 0
 120accumulation: - x1_2_0 - u1_2_0 + u1_2_4 = -2500
 121accumulation: - x1_2_1 + u1_2_0 - u1_2_1 = -2500
 122accumulation: - x1_2_2 + u1_2_1 - u1_2_2 = -2500
 123accumulation: - x1_2_3 + u1_2_2 - u1_2_3 = -2500
 124accumulation: - x1_2_4 + u1_2_3 - u1_2_4 = -2500
 200accumulation: - x2_0_0 - u2_0_0 + u2_0_4 = -4000
 201accumulation: - x2_0_1 + u2_0_0 - u2_0_1 = -4000
 202accumulation: - x2_0_2 + u2_0_1 - u2_0_2 = -4000
 203accumulation: - x2_0_3 + u2_0_2 - u2_0_3 = -4000
 204accumulation: - x2_0_4 + u2_0_3 - u2_0_4 = -4000
 210accumulation: - x2_1_0 - u2_1_0 + u2_1_4 = -40000
 211accumulation: - x2_1_1 + u2_1_0 - u2_1_1 = -20000
 212accumulation: - x2_1_2 + u2_1_1 - u2_1_2 = -30000
 213accumulation: - x2_1_3 + u2_1_2 - u2_1_3 = -20000
 214accumulation: - x2_1_4 + u2_1_3 - u2_1_4 = -40000
 220accumulation: = 0
 221accumulation: = 0
 222accumulation: = 0
 223accumulation: = 0
 224accumulation: = 0
 200flow: - x0_1_1 - x0_2_1 + x1_0_0 + x2_0_0 - y0_1_1 - y0_2_1 + y1_0_0
   + y2_0_0 + stay0_0_0 - stay0_0_1 = 0
 201flow: - x0_1_2 - x0_2_2 + x1_0_1 + x2_0_1 - y0_1_2 - y0_2_2 + y1_0_1
   + y2_0_1 + stay0_0_1 - stay0_0_2 = 0
 202flow: - x0_1_3 - x0_2_3 + x1_0_2 + x2_0_2 - y0_1_3 - y0_2_3 + y1_0_2
   + y2_0_2 + stay0_0_2 - stay0_0_3 = 0
 203flow: - x0_1_4 - x0_2_4 + x1_0_3 + x2_0_3 - y0_1_4 - y0_2_4 + y1_0_3
   + y2_0_3 + stay0_0_3 - stay0_0_4 = 0
 204flow: - x0_1_0 - x0_2_0 + x1_0_4 + x2_0_4 - y0_1_0 - y0_2_0 + y1_0_4
   + y2_0_4 - stay0_0_0 + stay0_0_4 = 0
 210flow: x0_1_0 - x1_0_1 - x1_2_1 + x2_1_0 + y0_1_0 - y1_0_1 - y1_2_1
   + y2_1_0 + stay1_1_0 - stay1_1_1 = 0
 211flow: x0_1_1 - x1_0_2 - x1_2_2 + x2_1_1 + y0_1_1 - y1_0_2 - y1_2_2
   + y2_1_1 + stay1_1_1 - stay1_1_2 = 0
 212flow: x0_1_2 - x1_0_3 - x1_2_3 + x2_1_2 + y0_1_2 - y1_0_3 - y1_2_3
   + y2_1_2 + stay1_1_2 - stay1_1_3 = 0
 213flow: x0_1_3 - x1_0_4 - x1_2_4 + x2_1_3 + y0_1_3 - y1_0_4 - y1_2_4
   + y2_1_3 + stay1_1_3 - stay1_1_4 = 0
 214flow: x0_1_4 - x1_0_0 - x1_2_0 + x2_1_4 + y0_1_4 - y1_0_0 - y1_2_0
   + y2_1_4 - stay1_1_0 + stay1_1_4 = 0
 220flow: x0_2_0 + x1_2_0 - x2_0_1 - x2_1_1 + y0_2_0 + y1_2_0 - y2_0_1
   - y2_1_1 + stay2_2_0 - stay2_2_1 = 0
 221flow: x0_2_1 + x1_2_1 - x2_0_2 - x2_1_2 + y0_2_1 + y1_2_1 - y2_0_2
   - y2_1_2 + stay2_2_1 - stay2_2_2 = 0
 222flow: x0_2_2 + x1_2_2 - x2_0_3 - x2_1_3 + y0_2_2 + y1_2_2 - y2_0_3
   - y2_1_3 + stay2_2_2 - stay2_2_3 = 0
 223flow: x0_2_3 + x1_2_3 - x2_0_4 - x2_1_4 + y0_2_3 + y1_2_3 - y2_0_4
   - y2_1_4 + stay2_2_3 - stay2_2_4 = 0
 224flow: x0_2_4 + x1_2_4 - x2_0_0 - x2_1_0 + y0_2_4 + y1_2_4 - y2_0_0
   - y2_1_0 - stay2_2_0 + stay2_2_4 = 0
 220capacityLimit: x0_1_0 + x0_2_0 + x1_0_0 + x1_2_0 + x2_0_0 + x2_1_0
   + y0_1_0 + y0_2_0 + y1_0_0 + y1_2_0 + y2_0_0 + y2_1_0 + stay0_0_0
   + stay1_1_0 + stay2_2_0 = 120000
 221capacityLimit: x0_1_1 + x0_2_1 + x1_0_1 + x1_2_1 + x2_0_1 + x2_1_1
   + y0_1_1 + y0_2_1 + y1_0_1 + y1_2_1 + y2_0_1 + y2_1_1 + stay0_0_1
   + stay1_1_1 + stay2_2_1 = 120000
 222capacityLimit: x0_1_2 + x0_2_2 + x1_0_2 + x1_2_2 + x2_0_2 + x2_1_2
   + y0_1_2 + y0_2_2 + y1_0_2 + y1_2_2 + y2_0_2 + y2_1_2 + stay0_0_2
   + stay1_1_2 + stay2_2_2 = 120000
 223capacityLimit: x0_1_3 + x0_2_3 + x1_0_3 + x1_2_3 + x2_0_3 + x2_1_3
   + y0_1_3 + y0_2_3 + y1_0_3 + y1_2_3 + y2_0_3 + y2_1_3 + stay0_0_3
   + stay1_1_3 + stay2_2_3 = 120000
 224capacityLimit: x0_1_4 + x0_2_4 + x1_0_4 + x1_2_4 + x2_0_4 + x2_1_4
   + y0_1_4 + y0_2_4 + y1_0_4 + y1_2_4 + y2_0_4 + y2_1_4 + stay0_0_4
   + stay1_1_4 + stay2_2_4 = 120000
Bounds
End
